32	0

0	1	2
9	1	3
4	1	4
2	2	5	6
7	1	8
2	1	7
1	1	8
9	1	9
3	1	10
4	1	11
6	1	12
6	1	13
2	1	14
9	1	15
3	1	16
5	1	17
6	1	18
2	1	19
2	2	20	21
9	1	23
5	1	22
3	1	23
10	1	24
8	1	25
2	1	26
4	2	27	28
6	1	29
4	1	29
1	1	30
9	1	31
9	1	32
0	0
